50
15383

577 434
393 101
674 963
239 527
510 47
92 312
976 868
473 571
493 847
279 863
139 951
329 151
215 890
839 831
133 19
861 878
206 294
97 213
306 489
112 798
567 16
166 925
789 846
527 611
422 92
413 595
940 533
717 363
188 808
110 750
698 38
398 249
525 297
886 540
937 725
882 426
481 451
545 726
601 435
852 703
325 835
451 321
823 863
944 769
268 983
213 553
387 504
389 590
77 378
710 836
